presolving:
(round 1, fast)       246 del vars, 341 del conss, 0 add conss, 0 chg bounds, 0 chg sides, 0 chg coeffs, 0 upgd conss, 0 impls, 9664 clqs
(round 2, fast)       246 del vars, 410 del conss, 0 add conss, 0 chg bounds, 0 chg sides, 0 chg coeffs, 0 upgd conss, 0 impls, 9664 clqs
   (0.1s) running MILP presolver
   (0.1s) MILP presolver found nothing
(round 3, exhaustive) 246 del vars, 410 del conss, 0 add conss, 0 chg bounds, 0 chg sides, 0 chg coeffs, 9664 upgd conss, 0 impls, 9664 clqs
   (2.1s) probing: 1000/9266 (10.8%) - 0 fixings, 0 aggregations, 1036889 implications, 0 bound changes
   (2.1s) probing: 1001/9266 (10.8%) - 0 fixings, 0 aggregations, 1037784 implications, 0 bound changes
   (2.1s) probing aborted: 1000/1000 successive useless probings
   (2.2s) symmetry computation started: requiring (bin +, int -, cont +), (fixed: bin -, int +, cont -)
   (2.2s) no symmetry present
presolving (4 rounds: 4 fast, 2 medium, 2 exhaustive):
 246 deleted vars, 410 deleted constraints, 0 added constraints, 0 tightened bounds, 0 added holes, 0 changed sides, 0 changed coefficients
 0 implications, 24549 cliques
presolved problem has 9266 variables (9266 bin, 0 int, 0 impl, 0 cont) and 9664 constraints
   9664 constraints of type <setppc>
transformed objective value is always integral (scale: 1)
Presolving Time: 2.17

 time | node  | left  |LP iter|LP it/n|mem/heur|mdpt |vars |cons |rows |cuts |sepa|confs|strbr|  dualbound   | primalbound  |  gap   | compl. 
p 2.3s|     1 |     0 |     0 |     - |   locks|   0 |9266 |9664 |9664 |   0 |  0 |   0 |   0 | 0.000000e+00 | 2.346810e+05 |    Inf | unknown
p 2.3s|     1 |     0 |     0 |     - | vbounds|   0 |9266 |9664 |9664 |   0 |  0 |   0 |   0 | 0.000000e+00 | 1.880150e+05 |    Inf | unknown
p 2.4s|     1 |     0 |   213 |     - | vbounds|   0 |9266 |9675 |9664 |   0 |  0 |  11 |   0 | 0.000000e+00 | 1.139320e+05 |    Inf | unknown
  2.7s|     1 |     0 |  1988 |     - |   119M |   0 |9266 |9676 |9664 |   0 |  0 |  12 |   0 | 7.884164e+04 | 1.139320e+05 |  44.51%| unknown
  5.5s|     1 |     0 |  2287 |     - |   127M |   0 |9266 |9677 |9667 |   3 |  1 |  13 |   0 | 7.898970e+04 | 1.139320e+05 |  44.24%| unknown
  7.6s|     1 |     0 |  2469 |     - |   133M |   0 |9266 |9677 |9671 |   7 |  2 |  13 |   0 | 7.908400e+04 | 1.139320e+05 |  44.06%| unknown
 10.3s|     1 |     0 |  2856 |     - |   139M |   0 |9266 |9677 |9677 |  13 |  3 |  13 |   0 | 7.930822e+04 | 1.139320e+05 |  43.66%| unknown
 14.2s|     1 |     0 |  3054 |     - |   145M |   0 |9266 |9677 |9683 |  19 |  4 |  13 |   0 | 7.937252e+04 | 1.139320e+05 |  43.54%| unknown
 14.8s|     1 |     0 |  3201 |     - |   146M |   0 |9266 |9677 |9686 |  22 |  5 |  13 |   0 | 7.942191e+04 | 1.139320e+05 |  43.45%| unknown
 15.3s|     1 |     0 |  3352 |     - |   148M |   0 |9266 |9677 |9689 |  25 |  6 |  13 |   0 | 7.946116e+04 | 1.139320e+05 |  43.38%| unknown
 15.8s|     1 |     0 |  3448 |     - |   149M |   0 |9266 |9678 |9691 |  27 |  7 |  14 |   0 | 7.947802e+04 | 1.139320e+05 |  43.35%| unknown
 16.3s|     1 |     0 |  3489 |     - |   150M |   0 |9266 |9678 |9692 |  28 |  8 |  14 |   0 | 7.948674e+04 | 1.139320e+05 |  43.33%| unknown
 17.0s|     1 |     0 |  3609 |     - |   151M |   0 |9266 |9678 |9696 |  32 |  9 |  14 |   0 | 7.950199e+04 | 1.139320e+05 |  43.31%| unknown
 17.7s|     1 |     0 |  3660 |     - |   152M |   0 |9266 |9678 |9698 |  34 | 10 |  14 |   0 | 7.951093e+04 | 1.139320e+05 |  43.29%| unknown
 17.9s|     1 |     0 |  3702 |     - |   153M |   0 |9266 |9678 |9701 |  37 | 11 |  14 |   0 | 7.951718e+04 | 1.139320e+05 |  43.28%| unknown
 time | node  | left  |LP iter|LP it/n|mem/heur|mdpt |vars |cons |rows |cuts |sepa|confs|strbr|  dualbound   | primalbound  |  gap   | compl. 
 18.1s|     1 |     0 |  3806 |     - |   154M |   0 |9266 |9678 |9703 |  39 | 12 |  14 |   0 | 7.953192e+04 | 1.139320e+05 |  43.25%| unknown
 18.4s|     1 |     0 |  3931 |     - |   155M |   0 |9266 |9679 |9705 |  41 | 13 |  15 |   0 | 7.954380e+04 | 1.139320e+05 |  43.23%| unknown
 18.5s|     1 |     0 |  4011 |     - |   156M |   0 |9266 |9679 |9706 |  42 | 14 |  15 |   0 | 7.955231e+04 | 1.139320e+05 |  43.22%| unknown
 18.8s|     1 |     0 |  4063 |     - |   157M |   0 |9266 |9680 |9709 |  45 | 15 |  16 |   0 | 7.955665e+04 | 1.139320e+05 |  43.21%| unknown
 19.0s|     1 |     0 |  4125 |     - |   158M |   0 |9266 |9680 |9712 |  48 | 16 |  16 |   0 | 7.956048e+04 | 1.139320e+05 |  43.20%| unknown
 19.1s|     1 |     0 |  4169 |     - |   159M |   0 |9266 |9680 |9713 |  49 | 17 |  16 |   0 | 7.957907e+04 | 1.139320e+05 |  43.17%| unknown
 19.3s|     1 |     0 |  4343 |     - |   160M |   0 |9266 |9680 |9714 |  50 | 18 |  16 |   0 | 7.962888e+04 | 1.139320e+05 |  43.08%| unknown
 19.5s|     1 |     0 |  4473 |     - |   161M |   0 |9266 |9680 |9716 |  52 | 19 |  16 |   0 | 7.966038e+04 | 1.139320e+05 |  43.02%| unknown
 19.7s|     1 |     0 |  4516 |     - |   162M |   0 |9266 |9681 |9718 |  54 | 20 |  17 |   0 | 7.966679e+04 | 1.139320e+05 |  43.01%| unknown
d22.3s|     1 |     0 |  8033 |     - |farkasdi|   0 |9266 |9681 |9718 |   0 | 22 |  17 |   0 | 7.966679e+04 | 8.382700e+04 |   5.22%| unknown
L24.7s|     1 |     0 | 13496 |     - |    alns|   0 |9266 |9684 |9718 |  54 | 22 |  20 |   0 | 7.966679e+04 | 8.238800e+04 |   3.42%| unknown
 24.9s|     1 |     0 | 13496 |     - |   165M |   0 |9266 |9684 |9718 |  54 | 22 |  20 |   0 | 7.966679e+04 | 8.238800e+04 |   3.42%| unknown
 24.9s|     1 |     0 | 13496 |     - |   165M |   0 |9266 |9684 |7852 |  54 | 22 |  20 |   0 | 7.966679e+04 | 8.238800e+04 |   3.42%| unknown
 25.1s|     1 |     0 | 13531 |     - |   165M |   0 |9266 |7813 |7854 |  56 | 23 |  20 |   0 | 7.966862e+04 | 8.238800e+04 |   3.41%| unknown
 25.2s|     1 |     0 | 13531 |     - |   165M |   0 |9266 |7813 |7851 |  56 | 23 |  20 |   0 | 7.966862e+04 | 8.238800e+04 |   3.41%| unknown
(run 1, node 1) restarting after 1878 global fixings of integer variables

(restart) converted 56 cuts from the global cut pool into linear constraints

presolving:
(round 1, fast)       1878 del vars, 0 del conss, 0 add conss, 0 chg bounds, 0 chg sides, 17 chg coeffs, 0 upgd conss, 0 impls, 19279 clqs
   (25.3s) running MILP presolver
   (25.3s) MILP presolver found nothing
(round 2, exhaustive) 1878 del vars, 0 del conss, 0 add conss, 0 chg bounds, 0 chg sides, 17 chg coeffs, 56 upgd conss, 0 impls, 19279 clqs
(round 3, medium)     1878 del vars, 6 del conss, 4 add conss, 0 chg bounds, 4 chg sides, 27 chg coeffs, 56 upgd conss, 0 impls, 19280 clqs
presolving (4 rounds: 4 fast, 3 medium, 2 exhaustive):
 1878 deleted vars, 6 deleted constraints, 4 added constraints, 0 tightened bounds, 0 added holes, 4 changed sides, 27 changed coefficients
 0 implications, 19280 cliques
presolved problem has 7388 variables (7388 bin, 0 int, 0 impl, 0 cont) and 7813 constraints
     41 constraints of type <knapsack>
   7768 constraints of type <setppc>
      4 constraints of type <logicor>
transformed objective value is always integral (scale: 1)
Presolving Time: 2.43
transformed 3/6 original solutions to the transformed problem space

 time | node  | left  |LP iter|LP it/n|mem/heur|mdpt |vars |cons |rows |cuts |sepa|confs|strbr|  dualbound   | primalbound  |  gap   | compl. 
 28.5s|     1 |     0 | 18834 |     - |   168M |   0 |7388 |7813 |7798 |   0 |  0 |  20 |   0 | 7.966862e+04 | 8.238800e+04 |   3.41%| unknown
 28.6s|     1 |     0 | 18834 |     - |   168M |   0 |7388 |7813 |7797 |   0 |  0 |  20 |   0 | 7.966862e+04 | 8.238800e+04 |   3.41%| unknown
 29.9s|     1 |     0 | 18846 |     - |   169M |   0 |7388 |7812 |7798 |   1 |  1 |  20 |   0 | 7.967086e+04 | 8.238800e+04 |   3.41%| unknown
 29.9s|     1 |     0 | 18846 |     - |   170M |   0 |7388 |7812 |7796 |   1 |  1 |  20 |   0 | 7.967086e+04 | 8.238800e+04 |   3.41%| unknown
 31.1s|     1 |     0 | 18906 |     - |   170M |   0 |7388 |7810 |7798 |   3 |  2 |  20 |   0 | 7.968145e+04 | 8.238800e+04 |   3.40%| unknown
 31.1s|     1 |     0 | 18906 |     - |   170M |   0 |7388 |7810 |7793 |   3 |  2 |  20 |   0 | 7.968145e+04 | 8.238800e+04 |   3.40%| unknown
 32.1s|     1 |     0 | 19009 |     - |   171M |   0 |7388 |7805 |7796 |   6 |  3 |  20 |   0 | 7.971265e+04 | 8.238800e+04 |   3.36%| unknown
 32.2s|     1 |     0 | 19009 |     - |   171M |   0 |7388 |7805 |7777 |   6 |  3 |  20 |   0 | 7.971265e+04 | 8.238800e+04 |   3.36%| unknown
 32.9s|     1 |     0 | 19029 |     - |   172M |   0 |7388 |7786 |7778 |   7 |  4 |  20 |   0 | 7.971561e+04 | 8.238800e+04 |   3.35%| unknown
 33.0s|     1 |     0 | 19029 |     - |   172M |   0 |7388 |7787 |7776 |   7 |  4 |  21 |   0 | 7.971561e+04 | 8.238800e+04 |   3.35%| unknown
 34.0s|     1 |     0 | 19077 |     - |   173M |   0 |7388 |7785 |7777 |   8 |  5 |  21 |   0 | 7.972288e+04 | 8.238800e+04 |   3.34%| unknown
 34.0s|     1 |     0 | 19077 |     - |   173M |   0 |7388 |7785 |7773 |   8 |  5 |  21 |   0 | 7.972288e+04 | 8.238800e+04 |   3.34%| unknown
 34.8s|     1 |     0 | 19133 |     - |   174M |   0 |7388 |7781 |7775 |  10 |  6 |  21 |   0 | 7.972879e+04 | 8.238800e+04 |   3.34%| unknown
 34.8s|     1 |     0 | 19133 |     - |   174M |   0 |7388 |7781 |7767 |  10 |  6 |  21 |   0 | 7.972879e+04 | 8.238800e+04 |   3.34%| unknown
 35.6s|     1 |     0 | 19199 |     - |   174M |   0 |7388 |7773 |7768 |  11 |  7 |  21 |   0 | 7.973438e+04 | 8.238800e+04 |   3.33%| unknown
 time | node  | left  |LP iter|LP it/n|mem/heur|mdpt |vars |cons |rows |cuts |sepa|confs|strbr|  dualbound   | primalbound  |  gap   | compl. 
 35.7s|     1 |     0 | 19199 |     - |   174M |   0 |7388 |7774 |7765 |  11 |  7 |  22 |   0 | 7.973438e+04 | 8.238800e+04 |   3.33%| unknown
 36.6s|     1 |     0 | 19267 |     - |   175M |   0 |7388 |7771 |7767 |  13 |  8 |  22 |   0 | 7.974042e+04 | 8.238800e+04 |   3.32%| unknown
 36.7s|     1 |     0 | 19267 |     - |   175M |   0 |7388 |7772 |7761 |  13 |  8 |  23 |   0 | 7.974042e+04 | 8.238800e+04 |   3.32%| unknown
 37.7s|     1 |     0 | 19331 |     - |   176M |   0 |7388 |7766 |7762 |  14 |  9 |  23 |   0 | 7.974818e+04 | 8.238800e+04 |   3.31%| unknown
 37.7s|     1 |     0 | 19331 |     - |   176M |   0 |7388 |7767 |7761 |  14 |  9 |  24 |   0 | 7.974818e+04 | 8.238800e+04 |   3.31%| unknown
 38.5s|     1 |     0 | 19382 |     - |   176M |   0 |7388 |7766 |7762 |  15 | 10 |  24 |   0 | 7.975352e+04 | 8.238800e+04 |   3.30%| unknown
 38.5s|     1 |     0 | 19382 |     - |   176M |   0 |7388 |7766 |7758 |  15 | 10 |  24 |   0 | 7.975352e+04 | 8.238800e+04 |   3.30%| unknown
d40.6s|     1 |     0 | 22122 |     - |farkasdi|   0 |7388 |7762 |7758 |   0 | 12 |  24 |   0 | 7.975352e+04 | 8.228300e+04 |   3.17%| unknown
 42.3s|     1 |     0 | 25076 |     - |   177M |   0 |7388 |7762 |7758 |  15 | 12 |  24 |   0 | 7.975352e+04 | 8.228300e+04 |   3.17%| unknown
 42.4s|     1 |     0 | 25076 |     - |   177M |   0 |7388 |7763 |7608 |  15 | 12 |  25 |   0 | 7.975352e+04 | 8.228300e+04 |   3.17%| unknown
 42.8s|     1 |     0 | 25144 |     - |   178M |   0 |7388 |7613 |7611 |  18 | 13 |  25 |   0 | 7.976031e+04 | 8.228300e+04 |   3.16%| unknown
 42.9s|     1 |     0 | 25144 |     - |   178M |   0 |7388 |7613 |7610 |  18 | 13 |  25 |   0 | 7.976031e+04 | 8.228300e+04 |   3.16%| unknown
 56.5s|     1 |     2 | 25144 |     - |   178M |   0 |7388 |7605 |7610 |  18 | 14 |  25 |  32 | 8.005592e+04 | 8.228300e+04 |   2.78%| unknown
(run 2, node 1) restarting after 201 global fixings of integer variables

(restart) converted 18 cuts from the global cut pool into linear constraints

presolving:
(round 1, fast)       201 del vars, 0 del conss, 0 add conss, 0 chg bounds, 0 chg sides, 4 chg coeffs, 0 upgd conss, 0 impls, 18657 clqs
(round 2, exhaustive) 201 del vars, 0 del conss, 0 add conss, 0 chg bounds, 0 chg sides, 4 chg coeffs, 18 upgd conss, 0 impls, 18657 clqs
presolving (3 rounds: 3 fast, 2 medium, 2 exhaustive):
 201 deleted vars, 0 deleted constraints, 0 added constraints, 0 tightened bounds, 0 added holes, 0 changed sides, 4 changed coefficients
 0 implications, 18657 cliques
presolved problem has 7187 variables (7187 bin, 0 int, 0 impl, 0 cont) and 7623 constraints
     57 constraints of type <knapsack>
   7562 constraints of type <setppc>
      4 constraints of type <logicor>
transformed objective value is always integral (scale: 1)
Presolving Time: 2.55
transformed 4/7 original solutions to the transformed problem space

 time | node  | left  |LP iter|LP it/n|mem/heur|mdpt |vars |cons |rows |cuts |sepa|confs|strbr|  dualbound   | primalbound  |  gap   | compl. 
 58.5s|     1 |     0 | 29685 |     - |   180M |   0 |7187 |7623 |7604 |   0 |  0 |  25 |  32 | 8.005592e+04 | 8.228300e+04 |   2.78%| unknown
 58.5s|     1 |     0 | 29685 |     - |   180M |   0 |7187 |7623 |7593 |   0 |  0 |  25 |  32 | 8.005592e+04 | 8.228300e+04 |   2.78%| unknown
 59.7s|     1 |     0 | 29782 |     - |   182M |   0 |7187 |7612 |7596 |   3 |  1 |  25 |  32 | 8.005592e+04 | 8.228300e+04 |   2.78%| unknown
 59.8s|     1 |     0 | 29782 |     - |   182M |   0 |7187 |7612 |7590 |   3 |  1 |  25 |  32 | 8.005592e+04 | 8.228300e+04 |   2.78%| unknown
 60.9s|     1 |     0 | 29842 |     - |   183M |   0 |7187 |7606 |7593 |   6 |  2 |  25 |  32 | 8.005592e+04 | 8.228300e+04 |   2.78%| unknown
 60.9s|     1 |     0 | 29842 |     - |   183M |   0 |7187 |7606 |7590 |   6 |  2 |  25 |  32 | 8.005592e+04 | 8.228300e+04 |   2.78%| unknown
 61.8s|     1 |     0 | 29868 |     - |   183M |   0 |7187 |7603 |7591 |   7 |  3 |  25 |  32 | 8.005592e+04 | 8.228300e+04 |   2.78%| unknown
 62.8s|     1 |     0 | 29933 |     - |   184M |   0 |7187 |7603 |7592 |   8 |  4 |  25 |  32 | 8.005592e+04 | 8.228300e+04 |   2.78%| unknown
 62.8s|     1 |     0 | 29933 |     - |   184M |   0 |7187 |7604 |7591 |   8 |  4 |  26 |  32 | 8.005592e+04 | 8.228300e+04 |   2.78%| unknown
 64.0s|     1 |     0 | 29958 |     - |   184M |   0 |7187 |7603 |7593 |  10 |  5 |  26 |  32 | 8.005592e+04 | 8.228300e+04 |   2.78%| unknown
 64.0s|     1 |     0 | 29958 |     - |   184M |   0 |7187 |7603 |7591 |  10 |  5 |  26 |  32 | 8.005592e+04 | 8.228300e+04 |   2.78%| unknown
 65.0s|     1 |     0 | 30006 |     - |   184M |   0 |7187 |7601 |7592 |  11 |  6 |  26 |  32 | 8.005592e+04 | 8.228300e+04 |   2.78%| unknown
 65.0s|     1 |     0 | 30006 |     - |   184M |   0 |7187 |7601 |7591 |  11 |  6 |  26 |  32 | 8.005592e+04 | 8.228300e+04 |   2.78%| unknown
 66.1s|     1 |     0 | 30037 |     - |   184M |   0 |7187 |7600 |7592 |  12 |  7 |  26 |  32 | 8.005592e+04 | 8.228300e+04 |   2.78%| unknown
 66.2s|     1 |     0 | 30037 |     - |   184M |   0 |7187 |7600 |7591 |  12 |  7 |  26 |  32 | 8.005592e+04 | 8.228300e+04 |   2.78%| unknown
 time | node  | left  |LP iter|LP it/n|mem/heur|mdpt |vars |cons |rows |cuts |sepa|confs|strbr|  dualbound   | primalbound  |  gap   | compl. 
 67.2s|     1 |     0 | 30063 |     - |   184M |   0 |7187 |7599 |7592 |  13 |  8 |  26 |  32 | 8.005592e+04 | 8.228300e+04 |   2.78%| unknown
 67.3s|     1 |     0 | 30063 |     - |   184M |   0 |7187 |7599 |7591 |  13 |  8 |  26 |  32 | 8.005592e+04 | 8.228300e+04 |   2.78%| unknown
 68.2s|     1 |     0 | 30107 |     - |   184M |   0 |7187 |7598 |7592 |  14 |  9 |  26 |  32 | 8.005592e+04 | 8.228300e+04 |   2.78%| unknown
 68.3s|     1 |     0 | 30107 |     - |   184M |   0 |7187 |7598 |7588 |  14 |  9 |  26 |  32 | 8.005592e+04 | 8.228300e+04 |   2.78%| unknown
 69.2s|     1 |     0 | 30155 |     - |   184M |   0 |7187 |7594 |7589 |  15 | 10 |  26 |  32 | 8.005592e+04 | 8.228300e+04 |   2.78%| unknown
 69.2s|     1 |     0 | 30155 |     - |   185M |   0 |7187 |7594 |7587 |  15 | 10 |  26 |  32 | 8.005592e+04 | 8.228300e+04 |   2.78%| unknown
 69.4s|     1 |     0 | 30173 |     - |   185M |   0 |7187 |7592 |7588 |  16 | 11 |  26 |  32 | 8.005592e+04 | 8.228300e+04 |   2.78%| unknown
 69.5s|     1 |     0 | 30173 |     - |   185M |   0 |7187 |7592 |7587 |  16 | 11 |  26 |  32 | 8.005592e+04 | 8.228300e+04 |   2.78%| unknown
 81.5s|     1 |     2 | 35398 |     - |   186M |   0 |7187 |7601 |7587 |  16 | 11 |  36 |  53 | 8.008028e+04 | 8.228300e+04 |   2.75%| unknown
*98.3s|     7 |     2 | 41076 |3223.8 |strongbr|   3 |7187 |7458 |7554 |  16 |  4 |  49 | 143 | 8.033972e+04 | 8.204400e+04 |   2.12%|  51.97%
*99.2s|     8 |     1 | 41841 |2950.6 |strongbr|   3 |7187 |7458 |7554 |  16 |  6 |  55 | 152 | 8.033972e+04 | 8.190100e+04 |   1.94%|  56.55%

SCIP Status        : problem is solved [optimal solution found]
Solving Time (sec) : 118.78
Solving Nodes      : 13 (total of 15 nodes in 3 runs)
Primal Bound       : +8.19010000000000e+04 (9 solutions)
Dual Bound         : +8.19010000000000e+04
Gap                : 0.00 %
Solve Status: optimal
Solve Time: 118.78 seconds
Objective Value: 81901.00
